NAME : eil101.762.tour
COMMENT : Cost = 0_762
COMMENT : Found by LKH [Keld Helsgaun] Thu Nov 16 16:24:14 2017
TYPE : TOUR
DIMENSION : 110
TOUR_SECTION
1
50
102
70
103
31
104
76
105
27
106
30
107
77
3
79
78
34
35
65
71
66
20
32
90
63
10
62
88
7
82
48
19
11
64
49
36
47
46
8
45
17
84
5
60
83
18
52
89
6
94
13
95
96
99
59
93
85
61
16
86
38
14
44
91
100
37
98
92
97
87
42
43
15
57
2
21
73
72
74
41
22
75
56
23
67
39
4
25
55
54
24
29
68
80
12
26
40
58
53
101
108
33
81
9
51
109
28
110
69
-1
EOF
